p wcnf 115 139 140 
1 67 -103 0 
1 -108 56 0 
1 107 -75 0 
1 10 91 0 
1 -89 -38 0 
1 108 80 0 
1 110 58 0 
1 -77 99 0 
1 -17 94 0 
1 -9 -69 0 
1 36 103 0 
1 -95 70 0 
1 -5 36 0 
1 25 58 0 
1 -54 43 0 
1 -93 63 0 
1 39 -105 0 
1 -98 23 0 
1 109 19 0 
1 -9 -93 0 
1 70 72 0 
1 -54 51 0 
1 51 80 0 
1 -79 -15 0 
1 -26 -75 0 
1 -97 70 0 
1 -94 -84 0 
1 103 -71 0 
1 38 53 0 
1 86 38 0 
1 -40 83 0 
1 -100 70 0 
1 -48 -72 0 
1 -5 112 0 
1 89 -51 0 
1 -51 -85 0 
1 -65 -12 0 
1 -44 15 0 
1 -30 -69 0 
1 -72 -15 0 
1 107 115 0 
1 -54 84 0 
1 -75 -99 0 
1 -31 20 0 
1 -17 -15 0 
1 76 -41 0 
1 91 63 0 
1 -32 -85 0 
1 -80 27 0 
1 13 -47 0 
1 83 58 0 
1 -103 78 0 
1 46 34 0 
1 -33 68 0 
1 -23 65 0 
1 50 -114 0 
1 -10 -62 0 
1 -13 30 0 
1 -54 13 0 
1 76 29 0 
1 5 -72 0 
1 -56 -107 0 
1 37 -30 0 
1 63 -115 0 
1 9 67 0 
1 -84 60 0 
1 99 -77 0 
1 -67 -8 0 
1 -105 -102 0 
1 45 33 0 
1 48 40 0 
1 62 -12 0 
1 -19 14 0 
1 -17 -65 0 
1 -15 79 0 
1 -30 28 0 
1 104 45 0 
1 -106 103 0 
1 -15 -74 0 
1 36 -67 0 
1 103 -26 0 
1 -64 -102 0 
1 40 -47 0 
1 -67 41 0 
1 -95 -112 0 
1 33 43 0 
1 -77 -87 0 
1 105 -88 0 
1 21 105 0 
1 -29 69 0 
1 67 -101 0 
1 113 -96 0 
1 108 56 0 
1 12 -65 0 
1 9 80 0 
1 -46 27 0 
1 -11 26 0 
1 -63 -99 0 
1 87 -29 0 
1 73 -5 0 
1 64 -54 0 
1 -26 -111 0 
1 -44 -72 0 
1 -97 -34 0 
1 -36 42 0 
1 22 12 0 
1 99 42 0 
1 -12 9 0 
1 -40 49 0 
1 87 -82 0 
1 -11 -52 0 
1 -67 18 0 
1 58 72 0 
1 10 8 0 
1 -51 87 0 
1 -103 82 0 
1 84 103 0 
1 45 96 0 
1 -37 1 0 
1 67 14 0 
1 -106 21 0 
1 115 97 0 
1 -50 -106 0 
1 -51 59 0 
1 26 100 0 
1 26 82 0 
1 5 -44 0 
1 55 4 0 
1 -6 52 0 
1 -70 -85 0 
1 -43 21 0 
1 34 -62 0 
1 -2 39 0 
1 -107 30 0 
1 -31 -34 0 
1 35 77 0 
1 -5 99 0 
1 114 -6 0 
1 54 29 0 
